min:x1+x2+x3+x4+x5+x6+x7+x8+x9+x10+x11+x12+x13+x14+x15+x16+x17+x18+x19+x20+x21+x22+x23+x24+x25+x26+x27+x28+x29+x30;
    A1+B1=1;
    A2+B2=1;
    A3+B3=1;
    A4+B4=1;
    A5+B5=1;
    A6+B6=1;
    A7+B7=1;
    A8+B8=1;
    A9+B9=1;
    A10+B10=1;
    A11+B11=1;
    A12+B12=1;
    A13+B13=1;
    A14+B14=1;
    A15+B15=1;
    A16+B16=1;
    A17+B17=1;
    A18+B18=1;
    A19+B19=1;
    A20+B20=1;
    A21+B21=1;
    A22+B22=1;
    A23+B23=1;
    A24+B24=1;
    A25+B25=1;
    A26+B26=1;
    A27+B27=1;
    A28+B28=1;
    A29+B29=1;
    A30+B30=1;
    A31+B31=1;
    A32+B32=1;
    A33+B33=1;
    A34+B34=1;
    A35+B35=1;
    A36+B36=1;
    A37+B37=1;
    A38+B38=1;
    A39+B39=1;
    A40+B40=1;
    A41+B41=1;
    A42+B42=1;
    A43+B43=1;
    A44+B44=1;
    A45+B45=1;
    A46+B46=1;
    A47+B47=1;
    A48+B48=1;
    A49+B49=1;
    A50+B50=1;
    A51+B51=1;
    A52+B52=1;
    A53+B53=1;
    A54+B54=1;
    A55+B55=1;
    A56+B56=1;
    A57+B57=1;
    A58+B58=1;
    A59+B59=1;
    A60+B60=1;
    A61+B61=1;
    A62+B62=1;
    A63+B63=1;
    A64+B64=1;
    A65+B65=1;
    A66+B66=1;
    A67+B67=1;
    A68+B68=1;
    A69+B69=1;
    A70+B70=1;
    A71+B71=1;
    A72+B72=1;
    A73+B73=1;
    A74+B74=1;
    A75+B75=1;
    A76+B76=1;
    A77+B77=1;
    A78+B78=1;
    A79+B79=1;
    A80+B80=1;
    A81+B81=1;
    A82+B82=1;
    A83+B83=1;
    A84+B84=1;
    A85+B85=1;
    A86+B86=1;
    A87+B87=1;
    A88+B88=1;
    A89+B89=1;
    A90+B90=1;
    A91+B91=1;
    A92+B92=1;
    A93+B93=1;
    A94+B94=1;
    A95+B95=1;
    A96+B96=1;
    A97+B97=1;
    A98+B98=1;
    A99+B99=1;
    A100+B100=1;
    A101+B101=1;
    A102+B102=1;
    A103+B103=1;
    A104+B104=1;
    A105+B105=1;
    A106+B106=1;
    A107+B107=1;
    A108+B108=1;
    A109+B109=1;
    A110+B110=1;
    A111+B111=1;
    A112+B112=1;
    A113+B113=1;
    A114+B114=1;
    A115+B115=1;
    A116+B116=1;
    A117+B117=1;
    A118+B118=1;
    A119+B119=1;
    A120+B120=1;
    A121+B121=1;
    A122+B122=1;
    A123+B123=1;
    A124+B124=1;
    A125+B125=1;
    A126+B126=1;
    A127+B127=1;
    A128+B128=1;
    A129+B129=1;
    A130+B130=1;
    A131+B131=1;
    A132+B132=1;
    A133+B133=1;
    A134+B134=1;
    A135+B135=1;
    A136+B136=1;
    A137+B137=1;
    A138+B138=1;
    A139+B139=1;
    A140+B140=1;
    A141+B141=1;
    A142+B142=1;
    A143+B143=1;
    A144+B144=1;
    A145+B145=1;
    A146+B146=1;
    A147+B147=1;
    A148+B148=1;
    A149+B149=1;
    A150+B150=1;
    A151+B151=1;
    A152+B152=1;
    A153+B153=1;
    A154+B154=1;
    A155+B155=1;
    A156+B156=1;
    A157+B157=1;
    A158+B158=1;
    A159+B159=1;
    A160+B160=1;
    A161+B161=1;
    A162+B162=1;
    A163+B163=1;
    A164+B164=1;
    A165+B165=1;
    A166+B166=1;
    A167+B167=1;
    A168+B168=1;
    A169+B169=1;
    A170+B170=1;
    A171+B171=1;
    A172+B172=1;
    A173+B173=1;
    A174+B174=1;
    A175+B175=1;
    A176+B176=1;
    A177+B177=1;
    A178+B178=1;
    A179+B179=1;
    A180+B180=1;
    A181+B181=1;
    A182+B182=1;
    A183+B183=1;
    A184+B184=1;
    A185+B185=1;
    A186+B186=1;
    A187+B187=1;
    A188+B188=1;
    A189+B189=1;
    A190+B190=1;
    A191+B191=1;
    A192+B192=1;
    A193+B193=1;
    A194+B194=1;
    A195+B195=1;
    A196+B196=1;
    A197+B197=1;
    A198+B198=1;
    A199+B199=1;
    A200+B200=1;
    A201+B201=1;
    A202+B202=1;
    A203+B203=1;
    A204+B204=1;
    A205+B205=1;
    A206+B206=1;
    A207+B207=1;
    A208+B208=1;
    A209+B209=1;
    A210+B210=1;
    A211+B211=1;
    A212+B212=1;
    A213+B213=1;
    A214+B214=1;
    A215+B215=1;
    A216+B216=1;
    A217+B217=1;
    A218+B218=1;
    A219+B219=1;
    A220+B220=1;
    A221+B221=1;
    A222+B222=1;
    A223+B223=1;
    A224+B224=1;
    A225+B225=1;
    A226+B226=1;
    A227+B227=1;
    A228+B228=1;
    A229+B229=1;
    A230+B230=1;
    A231+B231=1;
    A232+B232=1;
    A233+B233=1;
    A234+B234=1;
    A235+B235=1;
    A236+B236=1;
    A237+B237=1;
    A238+B238=1;
    A239+B239=1;
    A240+B240=1;
    A241+B241=1;
    A242+B242=1;
    A243+B243=1;
    A244+B244=1;
    A245+B245=1;
    A246+B246=1;
    A247+B247=1;
    A248+B248=1;
    A249+B249=1;
    A250+B250=1;
    A251+B251=1;
    A252+B252=1;
    A253+B253=1;
    A254+B254=1;
    A255+B255=1;
    A256+B256=1;
    A257+B257=1;
    A258+B258=1;
    A259+B259=1;
    A260+B260=1;
    A261+B261=1;
    A262+B262=1;
    A263+B263=1;
    A264+B264=1;
    A265+B265=1;
    A266+B266=1;
    A267+B267=1;
    A268+B268=1;
    A269+B269=1;
    A270+B270=1;
    A271+B271=1;
    A272+B272=1;
    A273+B273=1;
    A274+B274=1;
    A275+B275=1;
    A276+B276=1;
    A277+B277=1;
    A278+B278=1;
    A1+A2+A3+A4+A5+A6+A7+A8+A9+A10+A11+A12+A13+A14+A15+A16+A17+A18+A19+9 x1>=9;
    B1+A20+A21+A22+A23+A24+A25+A26+A27+A28+A29+A30+A31+A32+A33+A34+A35+A36+A37+10 x2>=10;
    B2+A38+A39+A40+A41+A42+A43+A44+A45+A46+A47+A48+A49+A50+A51+A52+10 x3>=10;
    B3+B20+A53+A54+A55+A56+A57+A58+A59+A60+A61+A62+A63+A64+A65+A66+3 x4>=3;
    B4+B21+B53+A67+A68+A69+A70+A71+A72+A73+A74+A75+A76+A77+A78+3 x5>=3;
    B38+B67+A79+A80+A81+A82+A83+A84+A85+A86+A87+A88+A89+A90+A91+A92+A93+17 x6>=17;
    B5+B22+B39+B54+A94+A95+A96+A97+A98+A99+A100+A101+A102+A103+A104+A105+A106+A107+A108+A109+A110+A111+11 x7>=11;
    B6+B23+B55+B94+A112+A113+A114+A115+A116+A117+A118+A119+A120+A121+A122+A123+A124+A125+1 x8>=1;
    B7+B24+B40+B56+B68+B79+B95+A126+A127+A128+A129+A130+A131+A132+A133+A134+A135+A136+A137+A138+A139+10 x9>=10;
    B8+B69+B96+B112+A140+A141+A142+A143+A144+A145+A146+A147+A148+A149+A150+A151+A152+A153+A154+6 x10>=6;
    B9+B25+B41+B80+B97+B126+B140+A155+A156+A157+A158+A159+A160+A161+A162+A163+A164+A165+A166+18 x11>=18;
    B26+B42+B57+B81+B98+B113+B141+A167+A168+A169+A170+A171+A172+A173+2 x12>=2;
    B10+B43+B70+B82+B127+B155+A174+A175+A176+A177+A178+A179+A180+A181+A182+A183+A184+A185+A186+17 x13>=17;
    B11+B58+B83+B128+B156+B174+A187+A188+A189+A190+A191+A192+A193+A194+A195+A196+A197+A198+A199+4 x14>=4;
    B12+B59+B84+B99+B114+B157+B167+A200+A201+A202+A203+A204+A205+A206+A207+A208+6 x15>=6;
    B27+B44+B60+B85+B100+B129+B142+B158+B175+B187+B200+A209+A210+A211+A212+A213+A214+A215+A216+A217+5 x16>=5;
    B28+B86+B101+B115+B130+B143+B159+B168+B176+B188+B209+A218+A219+A220+A221+A222+A223+A224+A225+A226+A227+A228+A229+14 x17>=14;
    B45+B61+B71+B87+B102+B116+B218+A230+A231+A232+A233+A234+A235+10 x18>=10;
    B72+B103+B117+B131+B144+B160+B177+B189+B210+B219+B230+A236+A237+A238+A239+A240+A241+A242+A243+9 x19>=9;
    B29+B46+B73+B118+B132+B145+B161+B178+B190+B201+B220+A244+A245+A246+A247+A248+8 x20>=8;
    B13+B30+B104+B119+B146+B179+B191+B202+B221+B236+B244+A249+A250+A251+A252+A253+A254+1 x21>=1;
    B14+B31+B47+B74+B88+B105+B133+B147+B180+B192+B203+B211+B222+B231+A255+A256+A257+A258+A259+A260+13 x22>=13;
    B32+B62+B89+B120+B148+B162+B169+B181+B193+B204+B212+B223+B237+B249+B255+A261+A262+A263+A264+A265+A266+3 x23>=3;
    B15+B33+B48+B63+B106+B149+B163+B170+B182+B194+B205+B213+B224+B232+B238+B245+B250+B256+B261+A267+A268+A269+A270+18 x24>=18;
    B16+B34+B49+B64+B75+B90+B107+B121+B134+B150+B171+B183+B195+B206+B225+B246+B251+B257+B262+B267+A271+A272+A273+10 x25>=10;
    B17+B35+B76+B91+B108+B122+B135+B151+B164+B184+B196+B214+B226+B233+B239+B252+B258+B263+B268+A274+A275+A276+3 x26>=3;
    B18+B36+B50+B65+B92+B109+B123+B136+B152+B165+B172+B197+B207+B215+B227+B234+B240+B253+B259+B269+B271+B274+1 x27>=1;
    B77+B93+B124+B137+B185+B198+B216+B228+B241+B264+A277+11 x28>=11;
    B37+B51+B66+B78+B110+B125+B138+B153+B166+B173+B186+B208+B235+B242+B247+B260+B265+B270+B272+B275+A278+19 x29>=19;
    B19+B52+B111+B139+B154+B199+B217+B229+B243+B248+B254+B266+B273+B276+B277+B278+7 x30>=7;
bin A1,B1,A2,B2,A3,B3,A4,B4,A5,B5,A6,B6,A7,B7,A8,B8,A9,B9,A10,B10,A11,B11,A12,B12,A13,B13,A14,B14,A15,B15,A16,B16,A17,B17,A18,B18,A19,B19,A20,B20,A21,B21,A22,B22,A23,B23,A24,B24,A25,B25,A26,B26,A27,B27,A28,B28,A29,B29,A30,B30,A31,B31,A32,B32,A33,B33,A34,B34,A35,B35,A36,B36,A37,B37,A38,B38,A39,B39,A40,B40,A41,B41,A42,B42,A43,B43,A44,B44,A45,B45,A46,B46,A47,B47,A48,B48,A49,B49,A50,B50,A51,B51,A52,B52,A53,B53,A54,B54,A55,B55,A56,B56,A57,B57,A58,B58,A59,B59,A60,B60,A61,B61,A62,B62,A63,B63,A64,B64,A65,B65,A66,B66,A67,B67,A68,B68,A69,B69,A70,B70,A71,B71,A72,B72,A73,B73,A74,B74,A75,B75,A76,B76,A77,B77,A78,B78,A79,B79,A80,B80,A81,B81,A82,B82,A83,B83,A84,B84,A85,B85,A86,B86,A87,B87,A88,B88,A89,B89,A90,B90,A91,B91,A92,B92,A93,B93,A94,B94,A95,B95,A96,B96,A97,B97,A98,B98,A99,B99,A100,B100,A101,B101,A102,B102,A103,B103,A104,B104,A105,B105,A106,B106,A107,B107,A108,B108,A109,B109,A110,B110,A111,B111,A112,B112,A113,B113,A114,B114,A115,B115,A116,B116,A117,B117,A118,B118,A119,B119,A120,B120,A121,B121,A122,B122,A123,B123,A124,B124,A125,B125,A126,B126,A127,B127,A128,B128,A129,B129,A130,B130,A131,B131,A132,B132,A133,B133,A134,B134,A135,B135,A136,B136,A137,B137,A138,B138,A139,B139,A140,B140,A141,B141,A142,B142,A143,B143,A144,B144,A145,B145,A146,B146,A147,B147,A148,B148,A149,B149,A150,B150,A151,B151,A152,B152,A153,B153,A154,B154,A155,B155,A156,B156,A157,B157,A158,B158,A159,B159,A160,B160,A161,B161,A162,B162,A163,B163,A164,B164,A165,B165,A166,B166,A167,B167,A168,B168,A169,B169,A170,B170,A171,B171,A172,B172,A173,B173,A174,B174,A175,B175,A176,B176,A177,B177,A178,B178,A179,B179,A180,B180,A181,B181,A182,B182,A183,B183,A184,B184,A185,B185,A186,B186,A187,B187,A188,B188,A189,B189,A190,B190,A191,B191,A192,B192,A193,B193,A194,B194,A195,B195,A196,B196,A197,B197,A198,B198,A199,B199,A200,B200,A201,B201,A202,B202,A203,B203,A204,B204,A205,B205,A206,B206,A207,B207,A208,B208,A209,B209,A210,B210,A211,B211,A212,B212,A213,B213,A214,B214,A215,B215,A216,B216,A217,B217,A218,B218,A219,B219,A220,B220,A221,B221,A222,B222,A223,B223,A224,B224,A225,B225,A226,B226,A227,B227,A228,B228,A229,B229,A230,B230,A231,B231,A232,B232,A233,B233,A234,B234,A235,B235,A236,B236,A237,B237,A238,B238,A239,B239,A240,B240,A241,B241,A242,B242,A243,B243,A244,B244,A245,B245,A246,B246,A247,B247,A248,B248,A249,B249,A250,B250,A251,B251,A252,B252,A253,B253,A254,B254,A255,B255,A256,B256,A257,B257,A258,B258,A259,B259,A260,B260,A261,B261,A262,B262,A263,B263,A264,B264,A265,B265,A266,B266,A267,B267,A268,B268,A269,B269,A270,B270,A271,B271,A272,B272,A273,B273,A274,B274,A275,B275,A276,B276,A277,B277,A278,B278,x1,x2,x3,x4,x5,x6,x7,x8,x9,x10,x11,x12,x13,x14,x15,x16,x17,x18,x19,x20,x21,x22,x23,x24,x25,x26,x27,x28,x29,x30;